784 1512
1 2 1
1 29 2
2 3 5
2 30 3
3 4 4
3 31 2
4 5 3
4 32 2
5 6 3
5 33 1
6 7 3
6 34 2
7 8 5
7 35 3
8 9 4
8 36 4
9 10 5
9 37 5
10 11 1
10 38 4
11 12 4
11 39 4
12 13 4
12 40 2
13 14 5
13 41 4
14 15 5
14 42 1
15 16 1
15 43 2
16 17 3
16 44 5
17 18 1
17 45 2
18 19 3
18 46 3
19 20 3
19 47 4
20 21 4
20 48 3
21 22 1
21 49 5
22 23 2
22 50 2
23 24 3
23 51 3
24 25 4
24 52 5
25 26 4
25 53 1
26 27 5
26 54 1
27 28 1
27 55 5
28 56 2
29 30 5
29 57 3
30 31 5
30 58 2
31 32 4
31 59 2
32 33 4
32 60 1
33 34 1
33 61 5
34 35 2
34 62 5
35 36 4
35 63 5
36 37 3
36 64 3
37 38 1
37 65 2
38 39 1
38 66 5
39 40 1
39 67 4
40 41 1
40 68 1
41 42 3
41 69 5
42 43 4
42 70 1
43 44 2
43 71 5
44 45 3
44 72 4
45 46 4
45 73 5
46 47 2
46 74 4
47 48 5
47 75 5
48 49 1
48 76 2
49 50 2
49 77 2
50 51 3
50 78 3
51 52 1
51 79 4
52 53 4
52 80 1
53 54 1
53 81 3
54 55 3
54 82 4
55 56 5
55 83 4
56 84 3
57 58 1
57 85 1
58 59 2
58 86 5
59 60 1
59 87 1
60 61 5
60 88 1
61 62 3
61 89 3
62 63 4
62 90 5
63 64 1
63 91 4
64 65 1
64 92 3
65 66 5
65 93 5
66 67 3
66 94 5
67 68 3
67 95 1
68 69 1
68 96 3
69 70 2
69 97 1
70 71 2
70 98 3
71 72 5
71 99 2
72 73 5
72 100 3
73 74 3
73 101 4
74 75 2
74 102 4
75 76 5
75 103 1
76 77 4
76 104 5
77 78 4
77 105 2
78 79 4
78 106 3
79 80 2
79 107 5
80 81 3
80 108 4
81 82 1
81 109 3
82 83 3
82 110 1
83 84 1
83 111 1
84 112 1
85 86 5
85 113 4
86 87 5
86 114 5
87 88 3
87 115 5
88 89 4
88 116 3
89 90 3
89 117 1
90 91 3
90 118 5
91 92 2
91 119 5
92 93 5
92 120 1
93 94 3
93 121 4
94 95 3
94 122 1
95 96 1
95 123 1
96 97 1
96 124 1
97 98 4
97 125 2
98 99 3
98 126 5
99 100 3
99 127 2
100 101 2
100 128 4
101 102 2
101 129 3
102 103 2
102 130 3
103 104 2
103 131 2
104 105 4
104 132 5
105 106 4
105 133 4
106 107 1
106 134 2
107 108 2
107 135 1
108 109 2
108 136 1
109 110 3
109 137 3
110 111 1
110 138 1
111 112 3
111 139 5
112 140 5
113 114 3
113 141 3
114 115 3
114 142 2
115 116 4
115 143 5
116 117 5
116 144 4
117 118 4
117 145 4
118 119 2
118 146 3
119 120 2
119 147 3
120 121 2
120 148 2
121 122 4
121 149 2
122 123 4
122 150 4
123 124 5
123 151 3
124 125 5
124 152 5
125 126 1
125 153 2
126 127 4
126 154 1
127 128 2
127 155 3
128 129 5
128 156 4
129 130 1
129 157 4
130 131 2
130 158 2
131 132 4
131 159 5
132 133 5
132 160 4
133 134 5
133 161 2
134 135 2
134 162 2
135 136 5
135 163 5
136 137 3
136 164 5
137 138 4
137 165 5
138 139 2
138 166 5
139 140 1
139 167 5
140 168 4
141 142 5
141 169 3
142 143 5
142 170 4
143 144 5
143 171 2
144 145 1
144 172 1
145 146 5
145 173 2
146 147 1
146 174 5
147 148 3
147 175 4
148 149 5
148 176 4
149 150 3
149 177 5
150 151 1
150 178 1
151 152 1
151 179 2
152 153 1
152 180 2
153 154 1
153 181 2
154 155 1
154 182 1
155 156 4
155 183 5
156 157 2
156 184 3
157 158 3
157 185 2
158 159 5
158 186 4
159 160 4
159 187 2
160 161 4
160 188 2
161 162 5
161 189 4
162 163 5
162 190 5
163 164 3
163 191 4
164 165 5
164 192 5
165 166 1
165 193 2
166 167 5
166 194 1
167 168 4
167 195 1
168 196 1
169 170 3
169 197 4
170 171 3
170 198 5
171 172 5
171 199 2
172 173 1
172 200 1
173 174 4
173 201 4
174 175 1
174 202 2
175 176 5
175 203 5
176 177 3
176 204 5
177 178 4
177 205 3
178 179 1
178 206 1
179 180 1
179 207 1
180 181 1
180 208 5
181 182 1
181 209 2
182 183 5
182 210 3
183 184 1
183 211 2
184 185 1
184 212 1
185 186 2
185 213 5
186 187 1
186 214 4
187 188 4
187 215 5
188 189 2
188 216 2
189 190 4
189 217 3
190 191 4
190 218 1
191 192 3
191 219 1
192 193 5
192 220 1
193 194 4
193 221 5
194 195 4
194 222 1
195 196 4
195 223 2
196 224 3
197 198 1
197 225 1
198 199 4
198 226 2
199 200 1
199 227 3
200 201 2
200 228 5
201 202 1
201 229 2
202 203 2
202 230 4
203 204 2
203 231 5
204 205 2
204 232 4
205 206 2
205 233 3
206 207 1
206 234 1
207 208 3
207 235 3
208 209 5
208 236 3
209 210 2
209 237 1
210 211 5
210 238 4
211 212 3
211 239 5
212 213 3
212 240 4
213 214 2
213 241 4
214 215 2
214 242 2
215 216 2
215 243 3
216 217 4
216 244 2
217 218 2
217 245 3
218 219 2
218 246 2
219 220 3
219 247 1
220 221 5
220 248 2
221 222 1
221 249 5
222 223 1
222 250 5
223 224 1
223 251 5
224 252 4
225 226 4
225 253 5
226 227 5
226 254 3
227 228 3
227 255 2
228 229 1
228 256 4
229 230 3
229 257 3
230 231 3
230 258 5
231 232 2
231 259 2
232 233 5
232 260 5
233 234 4
233 261 5
234 235 4
234 262 5
235 236 3
235 263 5
236 237 5
236 264 2
237 238 2
237 265 5
238 239 3
238 266 2
239 240 2
239 267 3
240 241 1
240 268 1
241 242 2
241 269 5
242 243 3
242 270 3
243 244 3
243 271 1
244 245 1
244 272 1
245 246 3
245 273 4
246 247 4
246 274 1
247 248 4
247 275 2
248 249 5
248 276 2
249 250 1
249 277 2
250 251 4
250 278 2
251 252 1
251 279 2
252 280 4
253 254 4
253 281 2
254 255 2
254 282 5
255 256 4
255 283 4
256 257 3
256 284 4
257 258 5
257 285 2
258 259 2
258 286 5
259 260 3
259 287 5
260 261 4
260 288 3
261 262 1
261 289 2
262 263 4
262 290 3
263 264 4
263 291 3
264 265 3
264 292 5
265 266 1
265 293 2
266 267 1
266 294 3
267 268 3
267 295 2
268 269 5
268 296 1
269 270 4
269 297 5
270 271 5
270 298 2
271 272 4
271 299 1
272 273 4
272 300 1
273 274 2
273 301 4
274 275 5
274 302 3
275 276 3
275 303 1
276 277 5
276 304 3
277 278 3
277 305 1
278 279 1
278 306 4
279 280 4
279 307 5
280 308 3
281 282 3
281 309 5
282 283 2
282 310 1
283 284 5
283 311 3
284 285 2
284 312 1
285 286 1
285 313 1
286 287 1
286 314 1
287 288 4
287 315 2
288 289 4
288 316 2
289 290 3
289 317 2
290 291 5
290 318 2
291 292 1
291 319 3
292 293 1
292 320 5
293 294 2
293 321 5
294 295 2
294 322 3
295 296 2
295 323 5
296 297 5
296 324 4
297 298 5
297 325 1
298 299 3
298 326 5
299 300 5
299 327 3
300 301 1
300 328 4
301 302 1
301 329 4
302 303 2
302 330 1
303 304 1
303 331 1
304 305 2
304 332 2
305 306 2
305 333 4
306 307 5
306 334 4
307 308 2
307 335 4
308 336 3
309 310 1
309 337 2
310 311 3
310 338 1
311 312 1
311 339 3
312 313 1
312 340 1
313 314 1
313 341 1
314 315 1
314 342 4
315 316 3
315 343 3
316 317 5
316 344 3
317 318 5
317 345 3
318 319 4
318 346 3
319 320 4
319 347 5
320 321 1
320 348 2
321 322 5
321 349 5
322 323 4
322 350 2
323 324 3
323 351 5
324 325 1
324 352 5
325 326 1
325 353 1
326 327 4
326 354 3
327 328 3
327 355 4
328 329 5
328 356 1
329 330 2
329 357 1
330 331 4
330 358 4
331 332 3
331 359 3
332 333 3
332 360 5
333 334 4
333 361 3
334 335 3
334 362 2
335 336 4
335 363 2
336 364 4
337 338 3
337 365 1
338 339 3
338 366 5
339 340 1
339 367 2
340 341 2
340 368 4
341 342 1
341 369 2
342 343 1
342 370 5
343 344 5
343 371 3
344 345 5
344 372 1
345 346 1
345 373 4
346 347 2
346 374 2
347 348 5
347 375 3
348 349 3
348 376 3
349 350 4
349 377 1
350 351 2
350 378 3
351 352 1
351 379 2
352 353 2
352 380 3
353 354 3
353 381 5
354 355 3
354 382 3
355 356 2
355 383 2
356 357 2
356 384 4
357 358 2
357 385 5
358 359 5
358 386 3
359 360 4
359 387 5
360 361 5
360 388 2
361 362 2
361 389 1
362 363 3
362 390 4
363 364 5
363 391 2
364 392 1
365 366 2
365 393 2
366 367 5
366 394 3
367 368 5
367 395 4
368 369 5
368 396 4
369 370 2
369 397 5
370 371 4
370 398 1
371 372 4
371 399 3
372 373 3
372 400 3
373 374 1
373 401 3
374 375 2
374 402 3
375 376 3
375 403 2
376 377 1
376 404 3
377 378 5
377 405 1
378 379 4
378 406 4
379 380 2
379 407 4
380 381 5
380 408 4
381 382 2
381 409 2
382 383 2
382 410 5
383 384 5
383 411 5
384 385 5
384 412 1
385 386 5
385 413 5
386 387 5
386 414 3
387 388 5
387 415 2
388 389 5
388 416 5
389 390 3
389 417 4
390 391 4
390 418 4
391 392 3
391 419 5
392 420 5
393 394 5
393 421 4
394 395 3
394 422 5
395 396 4
395 423 2
396 397 1
396 424 5
397 398 4
397 425 4
398 399 2
398 426 3
399 400 5
399 427 2
400 401 4
400 428 2
401 402 2
401 429 3
402 403 1
402 430 3
403 404 5
403 431 5
404 405 1
404 432 2
405 406 3
405 433 5
406 407 1
406 434 1
407 408 1
407 435 3
408 409 5
408 436 3
409 410 2
409 437 3
410 411 2
410 438 2
411 412 3
411 439 4
412 413 2
412 440 5
413 414 4
413 441 2
414 415 4
414 442 1
415 416 5
415 443 4
416 417 4
416 444 2
417 418 5
417 445 3
418 419 5
418 446 5
419 420 3
419 447 2
420 448 4
421 422 2
421 449 4
422 423 3
422 450 1
423 424 4
423 451 3
424 425 4
424 452 2
425 426 2
425 453 3
426 427 5
426 454 1
427 428 5
427 455 5
428 429 2
428 456 2
429 430 1
429 457 1
430 431 5
430 458 2
431 432 2
431 459 1
432 433 2
432 460 4
433 434 4
433 461 3
434 435 3
434 462 4
435 436 4
435 463 2
436 437 5
436 464 5
437 438 1
437 465 1
438 439 5
438 466 5
439 440 4
439 467 2
440 441 1
440 468 5
441 442 3
441 469 2
442 443 3
442 470 1
443 444 3
443 471 5
444 445 3
444 472 5
445 446 4
445 473 5
446 447 1
446 474 3
447 448 5
447 475 3
448 476 5
449 450 3
449 477 5
450 451 2
450 478 1
451 452 1
451 479 2
452 453 3
452 480 5
453 454 2
453 481 5
454 455 3
454 482 3
455 456 5
455 483 1
456 457 5
456 484 2
457 458 3
457 485 2
458 459 1
458 486 1
459 460 4
459 487 5
460 461 2
460 488 4
461 462 5
461 489 4
462 463 2
462 490 5
463 464 1
463 491 5
464 465 3
464 492 2
465 466 3
465 493 2
466 467 1
466 494 5
467 468 2
467 495 2
468 469 4
468 496 4
469 470 2
469 497 5
470 471 3
470 498 2
471 472 1
471 499 2
472 473 5
472 500 4
473 474 4
473 501 4
474 475 2
474 502 1
475 476 3
475 503 5
476 504 2
477 478 5
477 505 5
478 479 1
478 506 2
479 480 1
479 507 4
480 481 4
480 508 5
481 482 4
481 509 2
482 483 1
482 510 3
483 484 4
483 511 4
484 485 1
484 512 4
485 486 3
485 513 4
486 487 4
486 514 2
487 488 2
487 515 1
488 489 5
488 516 4
489 490 3
489 517 5
490 491 3
490 518 4
491 492 5
491 519 3
492 493 1
492 520 2
493 494 2
493 521 1
494 495 2
494 522 2
495 496 3
495 523 2
496 497 2
496 524 1
497 498 1
497 525 2
498 499 1
498 526 2
499 500 4
499 527 2
500 501 4
500 528 2
501 502 4
501 529 4
502 503 1
502 530 2
503 504 2
503 531 4
504 532 5
505 506 1
505 533 1
506 507 3
506 534 4
507 508 1
507 535 2
508 509 2
508 536 3
509 510 4
509 537 1
510 511 5
510 538 1
511 512 3
511 539 5
512 513 3
512 540 2
513 514 1
513 541 5
514 515 1
514 542 4
515 516 5
515 543 4
516 517 1
516 544 3
517 518 3
517 545 2
518 519 4
518 546 5
519 520 2
519 547 3
520 521 3
520 548 5
521 522 3
521 549 1
522 523 5
522 550 3
523 524 4
523 551 4
524 525 4
524 552 1
525 526 5
525 553 5
526 527 5
526 554 4
527 528 1
527 555 2
528 529 4
528 556 1
529 530 1
529 557 4
530 531 4
530 558 3
531 532 4
531 559 1
532 560 5
533 534 1
533 561 5
534 535 1
534 562 1
535 536 1
535 563 3
536 537 5
536 564 3
537 538 2
537 565 4
538 539 5
538 566 1
539 540 3
539 567 1
540 541 5
540 568 4
541 542 2
541 569 1
542 543 3
542 570 3
543 544 2
543 571 2
544 545 2
544 572 1
545 546 2
545 573 1
546 547 3
546 574 4
547 548 5
547 575 4
548 549 5
548 576 3
549 550 4
549 577 3
550 551 4
550 578 1
551 552 5
551 579 2
552 553 4
552 580 2
553 554 4
553 581 3
554 555 1
554 582 5
555 556 4
555 583 5
556 557 2
556 584 2
557 558 3
557 585 2
558 559 5
558 586 4
559 560 2
559 587 5
560 588 4
561 562 5
561 589 5
562 563 4
562 590 4
563 564 3
563 591 2
564 565 5
564 592 2
565 566 4
565 593 3
566 567 2
566 594 3
567 568 1
567 595 2
568 569 5
568 596 3
569 570 5
569 597 2
570 571 2
570 598 1
571 572 2
571 599 2
572 573 5
572 600 3
573 574 2
573 601 4
574 575 3
574 602 2
575 576 2
575 603 5
576 577 4
576 604 4
577 578 2
577 605 3
578 579 4
578 606 5
579 580 1
579 607 3
580 581 1
580 608 5
581 582 4
581 609 2
582 583 2
582 610 2
583 584 4
583 611 4
584 585 5
584 612 1
585 586 4
585 613 1
586 587 2
586 614 4
587 588 5
587 615 3
588 616 2
589 590 2
589 617 4
590 591 1
590 618 5
591 592 4
591 619 1
592 593 2
592 620 4
593 594 1
593 621 1
594 595 5
594 622 4
595 596 2
595 623 5
596 597 2
596 624 2
597 598 3
597 625 4
598 599 2
598 626 4
599 600 5
599 627 3
600 601 1
600 628 2
601 602 2
601 629 1
602 603 1
602 630 4
603 604 5
603 631 5
604 605 4
604 632 3
605 606 1
605 633 5
606 607 1
606 634 1
607 608 5
607 635 4
608 609 5
608 636 2
609 610 3
609 637 4
610 611 2
610 638 5
611 612 3
611 639 3
612 613 3
612 640 5
613 614 2
613 641 1
614 615 1
614 642 4
615 616 4
615 643 5
616 644 1
617 618 4
617 645 5
618 619 2
618 646 2
619 620 2
619 647 3
620 621 2
620 648 5
621 622 4
621 649 1
622 623 4
622 650 4
623 624 1
623 651 2
624 625 5
624 652 2
625 626 3
625 653 1
626 627 1
626 654 4
627 628 1
627 655 5
628 629 5
628 656 4
629 630 5
629 657 5
630 631 1
630 658 5
631 632 2
631 659 2
632 633 1
632 660 1
633 634 3
633 661 2
634 635 3
634 662 2
635 636 5
635 663 1
636 637 3
636 664 5
637 638 4
637 665 4
638 639 3
638 666 2
639 640 2
639 667 2
640 641 5
640 668 1
641 642 4
641 669 2
642 643 5
642 670 5
643 644 2
643 671 1
644 672 4
645 646 4
645 673 2
646 647 2
646 674 1
647 648 3
647 675 3
648 649 5
648 676 5
649 650 1
649 677 2
650 651 3
650 678 4
651 652 1
651 679 4
652 653 1
652 680 3
653 654 3
653 681 1
654 655 3
654 682 5
655 656 2
655 683 1
656 657 2
656 684 2
657 658 1
657 685 3
658 659 1
658 686 3
659 660 4
659 687 3
660 661 5
660 688 1
661 662 3
661 689 5
662 663 5
662 690 1
663 664 5
663 691 5
664 665 2
664 692 4
665 666 3
665 693 2
666 667 5
666 694 3
667 668 5
667 695 1
668 669 5
668 696 3
669 670 5
669 697 1
670 671 2
670 698 4
671 672 5
671 699 4
672 700 1
673 674 1
673 701 3
674 675 2
674 702 2
675 676 2
675 703 4
676 677 1
676 704 5
677 678 3
677 705 3
678 679 2
678 706 4
679 680 5
679 707 1
680 681 1
680 708 4
681 682 3
681 709 3
682 683 2
682 710 3
683 684 1
683 711 5
684 685 1
684 712 5
685 686 4
685 713 2
686 687 3
686 714 1
687 688 4
687 715 3
688 689 4
688 716 1
689 690 3
689 717 2
690 691 1
690 718 3
691 692 5
691 719 2
692 693 5
692 720 4
693 694 1
693 721 2
694 695 1
694 722 4
695 696 4
695 723 2
696 697 1
696 724 3
697 698 5
697 725 5
698 699 3
698 726 4
699 700 2
699 727 2
700 728 4
701 702 5
701 729 3
702 703 3
702 730 1
703 704 5
703 731 4
704 705 5
704 732 4
705 706 2
705 733 2
706 707 5
706 734 2
707 708 5
707 735 2
708 709 1
708 736 5
709 710 5
709 737 2
710 711 1
710 738 1
711 712 1
711 739 1
712 713 4
712 740 5
713 714 4
713 741 3
714 715 3
714 742 5
715 716 3
715 743 4
716 717 2
716 744 2
717 718 1
717 745 2
718 719 3
718 746 5
719 720 5
719 747 2
720 721 1
720 748 3
721 722 3
721 749 2
722 723 5
722 750 5
723 724 5
723 751 3
724 725 4
724 752 1
725 726 3
725 753 5
726 727 3
726 754 1
727 728 1
727 755 1
728 756 2
729 730 4
729 757 2
730 731 1
730 758 3
731 732 3
731 759 2
732 733 1
732 760 2
733 734 3
733 761 4
734 735 1
734 762 3
735 736 2
735 763 3
736 737 1
736 764 3
737 738 1
737 765 2
738 739 2
738 766 5
739 740 4
739 767 4
740 741 5
740 768 3
741 742 5
741 769 4
742 743 2
742 770 5
743 744 3
743 771 2
744 745 2
744 772 2
745 746 2
745 773 3
746 747 3
746 774 5
747 748 1
747 775 5
748 749 3
748 776 4
749 750 5
749 777 2
750 751 2
750 778 4
751 752 4
751 779 4
752 753 3
752 780 1
753 754 3
753 781 5
754 755 5
754 782 1
755 756 5
755 783 4
756 784 3
757 758 2
758 759 3
759 760 3
760 761 4
761 762 3
762 763 1
763 764 1
764 765 3
765 766 2
766 767 1
767 768 1
768 769 5
769 770 5
770 771 5
771 772 4
772 773 5
773 774 3
774 775 2
775 776 5
776 777 5
777 778 2
778 779 5
779 780 1
780 781 3
781 782 1
782 783 5
783 784 4
